proyfinal/src/viki/013/experimentInOfficeAgust.take6.output/93f69e4f-d987-4948-9256-2b93d7f4d71a.als.out
Reading from standard input... Use '--help' for help.
============================[ Problem Statistics ]=============================
|                                                                             |
|  Number of variables:         87638                                         |
|  Number of clauses:          161767                                         |
|  Parse time:                   0.04 s                                       |
|                                                                             |
============================[ Search Statistics ]==============================
| Conflicts |          ORIGINAL         |          LEARNT          | Progress |
|           |    Vars  Clauses Literals |    Limit  Clauses Lit/Cl |          |
===============================================================================
|       100 |   61958   103629   258978 |    37997      100    134 | 29.302 % |
|       250 |   61958   103629   258978 |    41797      250    153 | 29.302 % |
|       475 |   61958   103629   258978 |    45976      475    196 | 29.303 % |
|       812 |   61958   103629   258978 |    50574      812    155 | 29.302 % |
|      1318 |   43682    50649   129295 |    55631     1302    145 | 50.156 % |
|      2077 |   43682    50649   129295 |    61195     2061     99 | 50.156 % |
===============================================================================
restarts              : 15
conflicts             : 3124           (9018 /sec)
decisions             : 12344          (0.00 % random) (35635 /sec)
propagations          : 3990606        (11520059 /sec)
conflict literals     : 231062         (25.44 % deleted)
Memory used           : 23.06 MB
CPU time              : 0.346405 s

UNSATISFIABLE
